p cnf 769 1717
c ind 661 662 663 664 665 666 667 668 669 670 0
c ind 671 672 673 674 675 676 677 678 679 680 0
c ind 681 682 683 684 685 686 687 688 689 690 0
c ind 691 692 693 694 695 696 697 698 699 700 0
c ind 701 702 703 704 705 706 707 708 709 710 0
c ind 711 712 713 714 715 716 717 718 719 720 0
c ind 721 722 723 724 725 726 727 728 729 730 0
c ind 731 732 733 734 735 736 737 738 739 740 0
c ind 741 742 743 744 745 746 747 748 749 750 0
c ind 751 752 753 754 755 756 757 758 759 760 0
c ind 761 762 763 764 765 766 767 1 0
c ret 409 539 540 541 542 543 544 545 410 546 0
c ret 547 548 549 550 551 451 552 452 553 554 0
c ret 555 556 411 557 558 453 559 560 561 562 0
c ret 563 412 564 565 566 567 568 569 454 570 0
c ret 455 571 572 573 574 575 413 576 577 578 0
c ret 579 580 581 582 583 584 585 414 415 456 0
c ret 416 586 587 588 589 457 590 591 592 458 0
c ret 593 594 595 596 597 598 417 459 599 600 0
c ret 601 602 603 604 418 605 606 607 608 609 0
c ret 401 419 610 611 612 613 420 614 615 616 0
c ret 460 461 617 462 618 619 421 620 621 622 0
c ret 623 624 625 626 627 628 629 422 630 631 0
c ret 632 633 463 634 635 636 637 638 639 640 0
c ret 641 642 423 643 464 644 645 646 647 648 0
c ret 649 650 424 651 652 465 425 653 654 655 0
c ret 656 657 658 659 660 466 467 402 426 427 0
c ret 468 469 470 471 428 472 473 474 429 475 0
c ret 430 476 477 478 431 479 432 480 481 482 0
c ret 403 433 483 484 485 434 486 487 488 489 0
c ret 490 435 491 436 437 492 438 404 439 493 0
c ret 494 440 495 441 442 496 497 443 498 499 0
c ret 444 405 500 501 502 503 504 505 506 507 0
c ret 508 406 509 510 511 512 513 514 515 516 0
c ret 517 518 519 445 520 407 446 521 522 447 0
c ret 523 524 448 525 526 527 528 529 408 530 0
c ret 531 449 532 533 450 534 535 536 537 538 0
2 -178 -201 0
2 -3 -189 -201 0
-2 201 0
-2 178 189 0
-2 3 178 0
3 -4 -66 -173 175 0
-3 173 0
-3 -175 0
-3 4 0
-3 66 0
4 5 -20 -46 -57 0
-4 -5 0
-4 57 0
-4 46 0
-4 20 0
5 -6 19 0
-5 6 0
-5 -19 0
6 -7 413 0
6 -17 -413 0
-6 17 -413 0
-6 7 413 0
7 10 -415 0
7 -8 10 0
-7 -10 0
-7 8 415 0
8 -433 -454 0
8 -9 -454 0
-8 454 0
-8 9 433 0
9 -426 -427 -455 0
-9 426 0
-9 427 0
-9 455 0
8 10 11 -415 0
10 -11 -415 483 0
-10 415 0
-10 -11 -483 0
-8 -10 11 0
11 12 434 0
-11 -434 0
-11 -12 0
12 13 -484 0
-12 484 0
-12 -13 0
13 14 487 0
13 14 488 0
-13 -14 0
-13 -487 -488 0
14 15 -16 434 484 0
-14 16 0
-14 -15 0
-14 -434 0
-14 -484 0
15 435 444 -491 0
-15 491 0
-15 -444 0
-15 -435 0
16 -485 487 488 0
-16 485 0
-16 -488 0
-16 -487 0
-7 17 18 0
17 -18 -508 0
7 -17 18 0
-17 -18 508 0
12 18 415 434 0
-18 -415 0
-12 -18 0
-18 -434 0
19 413 415 434 0
-19 -413 0
-19 -434 0
-19 -415 0
20 21 -27 -38 0
20 21 -27 33 0
-20 -21 0
-20 27 0
-20 -33 38 0
21 22 -411 0
19 21 22 0
-21 -22 0
-19 -21 411 0
22 -23 -411 0
6 22 411 0
-6 -22 411 0
-22 23 -411 0
6 23 24 0
23 -24 534 0
-6 -23 24 0
-23 -24 -534 0
-19 24 -26 0
-19 24 -25 484 0
19 -24 0
-24 26 -484 0
-24 25 26 0
25 413 415 0
-25 -413 0
-25 -415 0
-13 26 484 0
-13 26 434 0
13 -26 0
-26 -434 -484 0
27 30 -528 0
27 -28 30 0
-27 -30 0
-27 28 528 0
28 -29 -519 0
28 519 530 0
-28 519 -530 0
-28 29 -519 0
29 451 452 0
29 439 -452 0
-29 -451 452 0
-29 -439 -452 0
29 30 31 528 0
-30 -528 0
-30 -31 0
-29 -30 0
31 -32 529 0
-31 -529 0
-31 32 0
32 494 518 0
-32 -494 0
-32 -518 0
33 -34 411 0
-33 -411 0
-33 34 0
34 -35 527 0
34 519 527 0
-34 -527 0
-34 35 -519 0
35 -36 413 0
-32 35 -413 0
32 -35 -413 0
-35 36 413 0
36 -37 415 0
-36 -415 0
-36 37 0
37 -452 471 0
37 452 470 0
-37 452 -470 0
-37 -452 -471 0
38 45 519 526 0
38 -39 45 526 0
-38 -45 0
-38 -526 0
-38 39 -519 0
39 -413 519 0
39 -40 413 0
-39 -413 -519 0
-39 40 413 0
40 41 415 0
40 41 494 0
-40 -41 0
-40 -415 -494 0
41 42 415 0
-41 -415 0
-41 -42 0
42 -44 441 0
42 -44 -452 0
42 43 -44 0
-42 44 0
-42 -43 -441 452 0
43 471 473 474 -475 0
-43 475 0
-43 -474 0
-43 -471 0
-43 -473 0
44 473 474 0
44 452 471 0
44 471 474 0
44 452 473 0
-44 -471 -473 0
-44 -452 -474 0
32 35 45 0
-32 -45 0
-35 -45 0
46 49 -531 0
46 -47 49 0
-46 -49 0
-46 47 531 0
47 -48 413 0
-47 -413 0
-47 48 0
48 415 430 0
-48 -415 0
-48 -430 0
-25 49 -50 0
-25 49 -51 0
25 -49 0
-49 50 51 0
50 -460 461 -462 0
-50 460 0
-50 -461 0
-50 462 0
51 -52 -425 0
-51 425 0
-51 52 0
52 -413 516 0
52 -53 413 0
-52 -413 -516 0
-52 53 413 0
53 -415 492 0
53 -54 415 0
-53 -415 -492 0
-53 54 415 0
54 55 423 0
54 55 445 446 0
-54 -55 0
-54 -423 -446 0
-54 -423 -445 0
55 56 424 -445 -446 0
-55 -424 0
-55 -56 0
-55 446 0
-55 445 0
56 -447 -448 0
-56 447 0
-56 448 0
30 57 -58 60 -63 0
-57 58 0
-57 -60 0
-30 -57 0
-57 63 0
34 58 59 0
-38 58 59 0
-58 -59 0
-34 38 -58 0
28 59 528 0
-59 -528 0
-28 -59 0
-51 60 -61 0
60 -61 -62 0
-60 61 0
51 -60 62 0
-25 61 411 0
-61 -411 0
25 -61 0
62 -415 461 -462 0
62 -460 461 -462 0
-62 462 0
-62 -461 0
-62 415 460 0
28 63 -65 -545 0
28 63 -64 -65 0
-63 65 0
-28 -63 0
-63 64 545 0
64 411 531 0
-64 -411 0
-64 -531 0
65 410 -543 -544 0
65 -410 -543 544 0
-65 543 0
-65 -410 -544 0
-65 410 544 0
66 -67 -151 -157 -167 0
-66 167 0
-66 67 0
-66 157 0
-66 151 0
-20 67 -68 138 -149 0
-67 149 0
-67 68 0
20 -67 0
-67 -138 0
68 -69 -77 78 -95 0
-68 95 0
-68 69 0
-68 77 0
-68 -78 0
7 69 -70 0
69 -70 415 434 0
-69 70 0
-7 -69 -434 0
-7 -69 -415 0
70 -75 -415 0
70 -71 72 -75 0
-70 75 0
-70 71 415 0
-70 -72 415 0
50 54 71 0
50 71 425 0
-50 -71 0
-54 -71 -425 0
72 73 -74 0
-72 -73 0
-72 74 0
-42 73 469 0
-73 -469 0
42 -73 0
-37 74 476 0
-74 -476 0
37 -74 0
75 76 -497 0
-48 75 76 0
-75 -76 0
48 -75 497 0
29 76 477 0
-76 -477 0
-29 -76 0
5 49 77 -522 0
5 -47 49 77 0
-49 -77 0
-5 -77 0
47 -77 522 0
-17 78 -79 0
78 86 -413 0
-17 78 -413 0
78 -79 86 0
17 -78 -86 0
-78 79 413 0
79 80 85 0
7 79 80 -83 0
-79 -80 0
-7 -79 -85 0
-79 83 -85 0
80 415 509 515 0
80 81 -415 509 -515 0
-80 -415 515 0
-80 -81 -515 0
-80 -509 0
-80 415 -515 0
81 -82 -415 -512 0
81 -82 415 -513 0
-81 82 0
-81 -415 512 0
-81 415 513 0
82 462 -510 0
82 -510 -511 0
-82 510 0
-82 -462 511 0
-53 83 -84 514 0
-53 83 503 514 0
53 -83 0
-83 -514 0
-83 84 -503 0
-36 84 494 501 0
-36 41 84 501 0
36 -84 0
-84 -501 0
-41 -84 -494 0
-81 85 -415 -509 0
-85 415 0
-85 509 0
81 -85 0
86 -87 91 -92 -93 0
-86 93 0
-86 87 0
-86 92 0
-86 -91 0
87 89 -503 0
87 -88 89 0
-87 -89 0
-87 88 503 0
-29 88 -494 0
88 494 504 0
-88 494 -504 0
29 -88 -494 0
84 89 -90 0
-84 -89 0
-89 90 0
-36 90 502 0
90 494 502 0
-90 -502 0
36 -90 -494 0
71 91 415 0
-91 -415 0
-71 -91 0
92 -503 0
-29 92 -494 0
-29 92 504 0
29 -92 503 0
-92 494 503 -504 0
50 93 94 -413 415 0
-93 -94 0
-50 -93 0
-93 413 0
-93 -415 0
48 94 505 0
-94 -505 0
-48 -94 0
49 95 -96 -130 -131 0
-95 131 0
-95 96 0
-95 130 0
-49 -95 0
96 -99 415 0
-10 96 -97 -99 0
-96 99 0
10 -96 -415 0
-96 97 -415 0
-71 97 -98 430 0
-71 97 -98 -480 0
-97 98 0
71 -97 0
-97 -430 480 0
72 98 -477 0
-29 72 98 0
-72 -98 0
29 -98 477 0
-98 99 -100 -107 128 0
-99 107 0
-99 -128 0
98 -99 0
-99 100 0
100 -103 -477 0
100 -101 -103 443 0
-100 103 0
-100 -443 477 0
-100 101 477 0
101 -102 478 0
-101 -478 0
-101 102 0
102 472 473 0
102 -452 473 0
102 440 452 -473 0
-102 -440 -473 0
-102 -452 -473 0
-102 452 -472 473 0
-71 103 104 105 -106 0
-103 106 0
-103 -105 0
71 -103 0
-103 -104 0
-8 104 -434 0
-104 434 0
8 -104 0
105 -430 480 0
105 -480 497 0
105 -415 497 0
-105 430 -497 0
-105 -480 -497 0
-105 415 430 480 0
29 106 -468 -495 496 0
-106 495 0
-29 -106 0
-106 468 0
-106 -496 0
-71 104 107 -108 -120 0
-107 120 0
71 -107 0
-107 108 0
-104 -107 0
108 -109 118 430 0
108 -109 -116 118 0
-108 109 0
-108 -118 0
-108 116 -430 0
109 -111 -113 -433 0
109 110 -111 -113 0
-109 113 0
-109 111 0
-109 -110 433 0
110 426 -434 0
-110 -426 0
-110 434 0
111 112 -426 -427 0
111 112 426 -435 0
-111 -112 0
-111 -426 427 0
-111 426 435 0
112 423 -424 -425 0
-112 425 0
-112 424 0
-112 -423 0
113 -114 115 -437 0
110 113 -114 115 0
-113 114 0
-113 -115 0
-110 -113 437 0
114 -416 -443 -463 464 0
-114 463 0
-114 -464 0
-114 416 0
-114 443 0
115 -430 465 0
115 -456 465 0
-115 -465 0
-115 430 456 0
116 117 -429 -449 0
116 117 428 -449 0
-116 449 0
-116 -117 0
-116 -428 429 0
117 431 -432 0
117 431 450 0
-117 -431 0
-117 432 -450 0
118 -119 -418 0
118 -418 420 -422 0
-118 418 0
-118 119 -420 0
-118 119 422 0
119 -417 419 -420 421 0
-119 420 0
-119 -421 0
-119 417 0
-119 -419 0
-29 120 -122 -125 0
120 121 -122 -125 0
-120 125 0
-120 122 0
29 -120 -121 0
121 438 -453 0
-121 -438 0
-121 453 0
122 123 124 430 0
122 123 124 -456 0
-122 -124 0
-122 -123 0
-122 -430 456 0
123 435 444 0
-123 -435 0
-123 -444 0
124 441 -442 0
-124 -441 0
-124 442 0
125 126 127 0
125 126 426 0
125 126 433 0
-125 -126 0
-125 -127 -426 -433 0
126 438 -443 0
126 438 -439 -440 0
-126 -438 0
-126 439 443 0
-126 440 443 0
127 -434 -435 436 0
-127 434 0
-127 435 0
-127 -436 0
-74 128 -441 0
128 -129 -441 0
-128 441 0
74 -128 129 0
-37 -73 129 0
-73 -102 129 0
73 -129 0
37 102 -129 0
-92 130 -413 0
89 -92 130 0
92 -130 0
-89 -130 413 0
-74 -87 131 -132 0
84 -87 131 -132 0
-131 132 0
87 -131 0
74 -84 -131 0
91 132 133 -134 -137 0
-91 -132 0
-132 137 0
-132 134 0
-132 -133 0
29 133 503 0
-133 -503 0
-29 -133 0
94 134 -135 -412 521 0
94 134 -135 412 -521 0
-134 135 0
-134 412 521 0
-94 -134 0
-134 -412 -521 0
135 -136 -500 -520 521 0
-135 136 0
-135 500 0
-135 520 0
-135 -521 0
136 414 -496 0
136 -414 496 0
-136 -414 -496 0
-136 414 496 0
88 137 -522 0
-47 88 137 505 0
-88 -137 0
-137 -505 522 0
47 -137 522 0
138 146 -411 0
138 139 143 146 0
-138 -146 0
-138 -139 411 0
-138 -143 411 0
-25 139 535 538 0
25 139 140 535 -538 0
-25 -139 -538 0
25 -139 -140 0
-139 -535 0
25 -139 538 0
-82 140 -141 0
82 -140 0
-140 141 0
141 -413 -536 0
141 -142 413 0
-141 142 413 0
-141 -413 536 0
142 -415 -512 0
142 415 -513 0
-142 415 513 0
-142 -415 512 0
25 -140 143 144 -535 0
140 -143 0
-143 -144 0
-143 535 0
-25 -143 0
6 144 -145 528 0
6 -38 144 -145 0
-144 145 0
-6 -144 0
38 -144 -528 0
-52 145 537 0
-145 -537 0
52 -145 0
-23 -46 146 -147 -148 0
-146 148 0
23 -146 0
-146 147 0
46 -146 0
-47 -58 147 0
-58 147 -531 0
58 -147 0
47 -147 531 0
-25 -27 50 148 -411 0
27 -148 0
-148 411 0
25 -148 0
-50 -148 0
60 149 -545 0
60 149 -150 0
-60 -149 0
-149 150 545 0
-48 150 411 413 0
48 -150 0
-150 -413 0
-150 -411 0
-147 151 -152 153 -155 0
-151 155 0
-151 152 0
147 -151 0
-151 -153 0
-77 -130 152 0
77 -152 0
130 -152 0
-38 153 154 0
38 -153 0
-153 -154 0
-90 154 413 0
-154 -413 0
90 -154 0
30 155 -156 -528 0
30 -88 155 -156 0
-155 156 0
-30 -155 0
88 -155 528 0
156 -525 544 0
-156 525 0
-156 -544 0
157 -161 164 0
157 158 164 0
-157 -164 0
-157 -158 161 0
158 -159 550 0
158 542 550 0
-158 -550 0
-158 159 -542 0
-35 159 411 0
159 -160 -411 0
-159 160 -411 0
35 -159 411 0
160 519 541 0
-160 -519 0
-160 -541 0
161 -162 -163 0
161 -163 542 0
-161 163 0
-161 162 -542 0
162 -411 542 0
-39 162 411 0
-162 -411 -542 0
39 -162 411 0
-160 163 549 0
-35 163 411 549 0
-163 -549 0
160 -163 -411 0
35 160 -163 0
164 165 551 0
29 164 166 551 0
-164 -551 0
-29 -164 -165 0
-164 -165 -166 0
-29 165 -542 0
165 542 553 0
-165 542 -553 0
29 -165 -542 0
-160 166 552 0
-166 -552 0
160 -166 0
161 167 168 -170 0
-33 167 168 -170 0
-167 170 0
-167 -168 0
33 -161 -167 0
168 169 -409 0
-168 409 0
-168 -169 0
-82 -141 169 411 0
-82 169 -411 -557 0
82 -169 0
-169 -411 557 0
141 -169 411 0
165 170 -171 -551 0
-28 165 170 -171 0
-170 171 0
-165 -170 0
28 -170 551 0
61 171 -172 -408 560 0
61 171 -172 408 -560 0
-171 172 0
-171 408 560 0
-61 -171 0
-171 -408 -560 0
172 -548 -554 -559 0
-172 548 0
-172 554 0
-172 559 0
60 173 -174 -554 0
60 -150 173 -174 0
-173 174 0
-60 -173 0
150 -173 554 0
21 -157 174 0
-21 -174 0
157 -174 0
-169 175 409 0
-22 -169 175 -176 0
169 -175 0
-175 176 -409 0
22 -175 -409 0
176 177 551 558 0
-161 176 177 558 0
-176 -177 0
-176 -558 0
161 -176 -551 0
177 -411 -539 0
52 177 411 0
-177 -411 539 0
-52 -177 411 0
178 -185 405 0
178 179 405 582 0
-178 -405 0
-178 185 -582 0
-178 -179 185 0
4 179 -180 0
179 184 -583 0
4 179 -583 0
179 -180 184 0
-179 180 583 0
-4 -179 -184 0
180 182 183 0
180 181 183 -585 0
-180 -183 0
-180 -181 -182 0
-180 -182 585 0
-69 -96 -136 181 500 0
-181 -500 0
136 -181 0
96 -181 0
69 -181 0
182 584 -585 0
-107 182 468 584 0
-182 -584 0
-182 -468 585 0
107 -182 585 0
-68 -152 183 525 -584 0
-183 -525 0
152 -183 0
68 -183 0
-183 584 0
-67 -151 184 548 -583 0
-184 -548 0
151 -184 0
67 -184 0
-184 583 0
-3 185 -186 564 -582 0
-185 -564 0
-185 186 0
3 -185 0
-185 582 0
-173 186 -187 188 560 0
-186 -560 0
-186 -188 0
-186 187 0
173 -186 0
60 -174 187 -561 0
60 -150 -174 187 0
174 -187 0
-60 -187 0
150 -187 561 0
188 -554 561 0
-188 554 0
-188 -561 0
-186 -187 189 190 -194 0
-189 194 0
187 -189 0
186 -189 0
-189 -190 0
-169 190 407 0
-22 -169 190 -191 0
169 -190 0
-190 191 -407 0
22 -190 -407 0
177 191 -192 575 0
177 191 569 575 0
-177 -191 0
-191 -575 0
-191 192 -569 0
192 193 565 567 0
-162 192 193 565 0
-192 -565 0
-192 -193 0
162 -192 -567 0
159 193 -542 0
159 193 -566 0
-159 -193 0
-193 542 566 0
-158 -192 194 -196 0
192 194 195 -196 0
-194 196 0
158 -192 -194 0
192 -194 -195 0
-159 195 568 0
195 567 568 0
-195 -568 0
159 -195 -567 0
196 197 -198 407 0
-169 196 197 -198 0
-196 198 0
-196 -197 0
169 -196 -407 0
-29 197 -567 0
197 567 571 0
-197 567 -571 0
29 -197 -567 0
198 -199 -200 -405 -578 0
-198 200 0
-198 405 0
-198 199 0
-198 578 0
199 -564 -569 -572 -576 0
-199 576 0
-199 564 0
-199 572 0
-199 569 0
61 200 -406 577 581 0
-61 -200 0
-200 -581 0
-200 406 0
-200 -577 0
201 202 -282 288 -289 0
-201 282 0
-201 -288 0
-201 -202 0
-201 289 0
202 227 270 0
202 255 270 0
202 203 270 0
-202 -270 0
-202 -203 -227 -255 0
203 -204 222 0
203 -222 629 0
-203 -222 -629 0
-203 204 222 0
204 -205 -404 0
204 404 599 0
-204 404 -599 0
-204 205 -404 0
205 206 599 0
205 -206 602 0
-205 -206 -602 0
-205 206 -599 0
206 -207 -214 0
206 -214 603 0
-206 214 0
-206 207 -603 0
207 208 -209 0
207 -208 -212 0
207 -208 -210 0
-207 208 209 0
-207 -208 210 212 0
208 405 582 583 0
-208 -405 0
-208 -583 0
-208 -582 0
25 -26 209 0
-25 209 411 484 0
-26 209 -411 0
25 26 -209 0
26 -209 -411 0
-25 -209 411 -484 0
210 211 484 584 0
-26 210 -211 584 0
-210 -584 0
-210 211 -484 0
26 -210 -211 0
211 -415 -585 0
-211 415 0
-211 585 0
212 -213 -584 0
-212 584 0
-212 213 0
-25 213 484 0
25 -26 213 0
-25 -213 -484 0
25 26 -213 0
214 215 -220 0
214 601 604 0
214 -220 601 0
214 215 604 0
-214 -215 -601 0
-214 220 -604 0
215 216 -486 0
-215 486 0
-215 -216 0
216 218 219 0
208 216 217 0
208 216 219 0
-208 -216 -218 0
-216 -217 -219 0
-208 -216 -219 0
217 411 413 0
-217 -411 0
-217 -413 0
218 584 585 0
-218 -584 0
-218 -585 0
219 415 584 0
219 413 415 0
-219 -415 0
-219 -413 -584 0
-61 220 434 0
220 -221 434 0
-220 -434 0
61 -220 221 0
-25 -208 211 221 0
-208 211 221 584 0
208 -221 0
-211 -221 0
25 -221 -584 0
222 -223 -224 0
222 -224 603 0
-222 224 0
-222 223 -603 0
-207 223 404 0
-223 -404 0
207 -223 0
224 601 604 0
224 -225 -226 0
224 -226 604 0
224 -225 601 0
-224 225 -604 0
-224 226 -601 0
225 -404 604 0
-220 225 404 0
-225 -404 -604 0
220 -225 404 0
215 226 404 0
-226 -404 0
-215 -226 0
227 228 -251 0
-227 -228 0
-227 251 0
228 -229 246 0
-228 229 0
-228 -246 0
229 230 622 0
229 -235 622 0
-229 -622 0
-229 -230 235 0
230 231 -613 0
230 231 405 0
-230 -231 0
-230 -405 613 0
231 -232 405 582 0
231 405 567 -582 0
-231 -405 0
-231 -567 -582 0
-231 232 582 0
232 542 -583 0
232 -234 583 0
232 -233 583 0
-232 -542 -583 0
-232 233 234 583 0
233 494 584 -585 0
-233 585 0
-233 -584 0
-233 -494 0
234 519 -584 0
-234 -519 0
-234 584 0
235 239 -404 0
235 -236 239 0
-235 -239 0
-235 236 404 0
-159 236 237 404 0
-208 236 237 404 0
-236 -404 0
-236 -237 0
159 208 -236 0
35 -208 237 238 0
-208 237 238 584 0
208 -237 0
-237 -238 0
-35 -237 -584 0
-37 211 238 584 0
-238 -584 0
37 -238 0
-211 -238 0
236 239 -240 0
-239 240 0
-236 -239 0
240 241 -567 0
240 241 -612 0
240 241 405 0
-240 -241 0
-240 -405 567 612 0
241 -243 405 582 0
241 -242 405 -582 0
-241 -405 0
-241 242 -582 0
-241 243 582 0
242 542 566 0
-242 -542 0
-242 -566 0
-160 243 -583 0
243 -245 583 0
243 -244 583 0
160 -243 -583 0
-243 244 245 583 0
-102 244 584 585 0
102 -244 0
-244 -585 0
-244 -584 0
-32 245 -584 0
-245 584 0
32 -245 0
239 246 247 621 0
-246 -621 0
-246 -247 0
-239 -246 0
-230 247 248 0
230 -247 0
-247 -248 0
-162 248 249 404 0
-208 248 249 404 0
-248 -404 0
-248 -249 0
162 208 -248 0
39 -208 249 -584 0
-208 249 -250 584 0
208 -249 0
-249 250 584 0
-39 -249 -584 0
-211 250 -494 0
42 211 250 0
-42 211 -250 0
-211 -250 494 0
251 252 254 -623 0
251 252 -253 254 0
-251 -254 0
-251 -252 0
-251 253 623 0
252 596 597 0
-252 -596 0
-252 -597 0
-29 -230 253 0
230 253 625 0
230 -253 -625 0
29 -230 -253 0
29 -240 254 623 0
29 254 623 -624 0
-254 -623 0
-29 -254 0
240 -254 624 0
255 -256 263 -267 -268 0
-255 268 0
-255 256 0
-255 267 0
-255 -263 0
256 257 258 0
256 257 -404 0
-256 -257 0
-256 -258 404 0
257 594 -595 0
-257 -594 0
-257 595 0
258 -259 -261 0
258 -261 -460 0
-258 261 0
-258 259 460 0
-208 -211 259 0
61 208 259 0
-208 259 -260 0
-61 208 -259 0
-208 211 -259 260 0
25 260 -584 0
-260 584 0
-25 -260 0
261 592 -593 0
261 -262 591 -592 0
-261 -591 -592 0
-261 592 593 0
-261 262 -592 0
262 511 -590 0
-262 -511 0
-262 590 0
263 264 626 0
-263 -626 0
-263 -264 0
264 -265 404 0
-264 -404 0
-264 265 0
-208 265 -266 0
-150 208 265 0
-208 -265 266 0
150 208 -265 0
-47 266 -584 0
211 266 430 584 0
47 -266 -584 0
-266 -430 584 0
-211 -266 584 0
259 267 404 0
-267 -404 0
-259 -267 0
268 -269 -402 -595 0
268 -269 -402 604 0
-268 269 0
-268 402 0
-268 595 -604 0
257 269 -596 0
257 269 -595 -597 0
-257 -269 0
-269 596 597 0
-269 595 596 0
270 271 -281 402 0
270 -271 -274 402 0
-270 -402 0
-270 -271 274 0
-270 271 281 0
267 271 -272 -273 0
-271 273 0
-271 272 0
-267 -271 0
272 -511 -590 0
272 -590 593 0
-272 590 0
-272 511 -593 0
273 404 -606 0
273 -404 -631 0
-273 -404 631 0
-273 404 606 0
274 276 -630 0
204 274 275 -630 0
-274 630 0
-204 -274 -276 0
-274 -275 -276 0
275 594 595 608 0
-275 -594 0
-275 -608 0
-275 -595 0
-246 276 -277 0
276 -277 623 0
-276 277 0
246 -276 -623 0
277 -404 610 632 0
277 278 404 632 0
-277 -632 0
-277 -278 404 0
-277 -404 -610 0
-208 278 -279 0
-177 208 278 0
-208 -278 279 0
177 208 -278 0
52 279 -584 0
279 -280 584 0
-52 -279 -584 0
-279 280 584 0
-211 280 -492 0
54 211 280 0
-54 211 -280 0
-211 -280 492 0
267 281 630 -633 0
-267 281 630 633 0
-281 -630 0
-267 -281 -633 0
267 -281 633 0
282 -283 -595 0
282 283 -285 0
282 -283 -284 0
-282 283 285 0
-282 -283 284 595 0
-204 283 402 0
-203 283 -402 0
203 -283 -402 0
204 -283 402 0
284 -402 604 0
-225 284 402 0
-284 -402 -604 0
225 -284 402 0
285 -286 603 0
-223 285 -286 402 0
-285 286 0
223 -285 -603 0
-285 -402 -603 0
286 287 601 0
-226 286 287 402 0
-286 -287 0
226 -286 -601 0
-286 -402 -601 0
284 287 -604 0
-287 604 0
-284 -287 0
-285 288 -652 0
283 288 -652 0
-288 652 0
-283 285 -288 0
289 290 -291 0
-284 289 -291 0
-283 289 -291 0
-289 291 0
283 284 -289 -290 0
290 -595 -596 601 0
-290 595 0
-290 596 0
-290 -601 0
291 -292 -344 0
291 319 -326 -344 0
-291 344 0
-291 292 -319 0
-291 292 326 0
292 -293 404 0
292 295 -318 404 0
-292 -404 0
-292 293 318 0
-292 293 -295 0
259 293 605 609 0
-259 293 294 605 -609 0
259 -293 -609 0
-259 -293 609 0
-293 -605 0
-293 -294 -609 0
294 -511 -590 -606 0
294 -590 593 -606 0
-294 606 0
-294 590 0
-294 511 -593 0
278 295 -296 -317 0
278 295 312 -317 0
-278 -295 0
-295 317 0
-295 296 -312 0
-192 296 -405 0
296 -297 405 0
-296 297 405 0
192 -296 -405 0
-161 297 -582 0
297 -304 582 0
297 -298 582 0
161 -297 -582 0
-297 298 304 582 0
298 303 411 -583 0
298 -299 303 -583 0
-298 583 0
-298 -303 0
-298 299 -411 0
-160 299 300 0
-31 299 300 542 0
-299 -300 0
160 -299 -542 0
31 160 -299 0
300 -301 -540 0
-300 540 0
-300 301 0
-39 301 302 0
301 302 542 0
-301 -302 0
39 -301 -542 0
35 160 302 0
-35 -302 0
-160 -302 0
38 301 303 0
38 303 411 0
-38 -303 0
-301 -303 -411 0
304 -305 583 0
304 309 -311 583 0
-304 -583 0
-304 305 311 0
-304 305 -309 0
305 306 442 584 0
305 306 584 -585 0
-305 -306 0
-305 -584 0
-305 -442 585 0
306 307 -415 -585 0
129 306 307 -585 0
-306 585 0
-306 -307 0
-129 -306 415 0
-37 -101 307 -308 0
-101 -129 307 -308 0
-307 308 0
101 -307 0
37 129 -307 0
37 308 494 0
308 -415 493 494 0
-308 -494 0
-37 -308 415 0
-37 -308 -493 0
32 309 -413 0
309 310 -413 -517 0
-309 413 0
-32 -309 517 0
-32 -309 -310 0
40 310 -519 0
-310 519 0
-40 -310 0
-84 311 -584 0
310 311 -413 -584 0
-311 584 0
84 -310 -311 0
84 -311 413 0
312 -405 -569 0
312 -313 405 0
-312 313 405 0
-312 -405 569 0
313 -551 -582 0
313 -314 582 0
-313 551 -582 0
-313 314 582 0
314 -528 -583 0
314 -315 583 0
-314 528 -583 0
-314 315 583 0
315 -503 -584 0
315 -316 584 0
-315 503 -584 0
-315 316 584 0
316 -477 -585 0
316 -438 585 0
-316 438 585 0
-316 477 -585 0
-275 317 607 0
317 599 607 0
-317 -607 0
275 -317 -599 0
-259 -294 318 -605 0
-318 605 0
259 -318 0
294 -318 0
296 319 320 0
-296 -319 0
-319 -320 0
195 320 -405 0
320 -321 405 0
-195 -320 -405 0
-320 321 405 0
158 321 -582 0
321 -322 582 0
-158 -321 -582 0
-321 322 582 0
33 322 -583 0
322 323 325 583 0
-33 -322 -583 0
-322 -325 583 0
-322 -323 583 0
323 -324 584 -585 0
323 441 584 585 0
-323 -584 0
-323 -441 585 0
-323 324 -585 0
-36 324 476 0
-324 -476 0
36 -324 0
-154 325 -584 0
-325 584 0
154 -325 0
-205 326 -327 334 -340 0
-326 340 0
205 -326 0
-326 327 0
-326 -334 0
327 328 -596 0
327 328 -597 0
-327 -328 0
-327 596 597 0
29 312 328 -330 0
29 312 328 -329 0
-29 -328 0
-312 -328 0
-328 329 330 0
329 -405 -542 0
329 -405 -570 0
329 -405 -566 0
-329 405 0
-329 542 566 570 0
330 -331 405 582 0
166 330 405 -582 0
-330 -405 0
-166 -330 -582 0
-330 331 582 0
331 332 583 0
31 331 332 0
-331 -332 0
-31 -331 -583 0
332 -333 453 585 0
-101 332 -333 -585 0
-332 333 0
101 -332 -585 0
-332 -453 585 0
333 583 584 0
-333 -583 0
-333 -584 0
312 334 -335 0
-312 -334 0
-334 335 0
197 335 -405 0
335 -336 405 0
-197 -335 -405 0
-335 336 405 0
165 336 -582 0
336 -337 582 0
-165 -336 -582 0
-336 337 582 0
28 337 -583 0
337 -338 583 0
-28 -337 -583 0
-337 338 583 0
88 338 -584 0
338 -339 584 0
-88 -338 -584 0
-338 339 584 0
29 339 -585 0
339 -443 585 0
-29 -339 -585 0
-339 443 585 0
258 259 340 -341 -343 0
-259 -340 0
-340 343 0
-340 341 0
-258 -340 0
257 341 342 0
-257 -341 0
-341 -342 0
265 342 587 0
-342 -587 0
-265 -342 0
-269 343 -404 -595 0
-269 343 -404 604 0
269 -343 0
-343 404 0
-343 595 -604 0
-220 344 -349 -399 0
344 -345 -349 -399 0
-344 399 0
-344 349 0
220 -344 345 0
-208 345 -346 0
-22 208 345 0
-208 -345 346 0
22 208 -345 0
346 -348 584 0
6 346 -584 0
346 -347 584 0
-6 -346 -584 0
-346 347 348 584 0
-10 347 -585 0
-347 585 0
10 -347 0
8 211 348 0
-8 -348 0
-211 -348 0
319 349 -350 -390 -392 0
-319 -349 0
-349 392 0
-349 390 0
-349 350 0
350 351 -353 -389 0
-350 389 0
-350 353 0
-350 -351 0
351 -352 404 0
-351 -404 0
-351 352 0
216 278 352 -425 0
-352 425 0
-278 -352 0
-216 -352 0
-251 -335 353 -354 -357 0
-353 357 0
251 -353 0
-353 354 0
335 -353 0
328 354 -646 0
-253 328 354 355 0
-328 -354 0
-354 -355 646 0
253 -354 646 0
29 355 356 0
29 355 -647 0
-29 -355 0
-355 -356 647 0
230 356 636 0
-356 -636 0
-230 -356 0
334 357 -358 -366 -369 0
-334 -357 0
-357 369 0
-357 366 0
-357 358 0
358 360 365 -402 0
358 359 360 365 0
-358 -365 0
-358 -360 0
-358 -359 402 0
225 359 404 595 600 0
-225 -359 0
-359 -600 0
-359 -404 0
-359 -595 0
265 360 -361 405 0
265 360 -405 578 0
-265 -360 0
-360 361 405 0
-360 -405 -578 0
361 561 -582 0
361 -362 582 0
-361 -561 -582 0
-361 362 582 0
362 545 -583 0
362 -363 583 0
-362 -545 -583 0
-362 363 583 0
363 522 -584 0
363 -364 584 0
-363 -522 -584 0
-363 364 584 0
364 465 585 0
364 497 -585 0
-364 -497 -585 0
-364 -465 585 0
256 -257 365 0
256 365 402 0
-256 -365 0
257 -365 -402 0
-256 366 -367 -402 0
-256 263 366 -367 0
-366 367 0
256 -366 0
-263 -366 402 0
359 367 -368 0
-264 359 367 402 0
-359 -367 0
-367 368 -402 0
264 -367 368 0
368 -640 -649 0
-368 640 0
-368 649 0
253 369 -370 -386 -387 0
-253 -369 0
-369 387 0
-369 386 0
-369 370 0
263 370 -371 -375 0
263 370 -372 -375 0
-263 -370 0
-370 375 0
-370 371 372 0
371 -599 -600 0
-371 599 0
-371 600 0
372 373 -374 0
-61 208 372 373 0
-372 -373 0
-208 -372 374 0
61 -372 374 0
373 -437 -598 0
-9 373 -598 0
-373 598 0
9 -373 437 0
-208 211 374 584 0
-25 -208 374 -584 0
208 -374 0
-211 -374 584 0
25 -374 -584 0
259 375 -376 382 -383 0
-375 376 0
-375 -382 0
-259 -375 0
-375 383 0
-269 376 -377 -380 -381 0
-376 381 0
269 -376 0
-376 380 0
-376 377 0
377 378 -379 626 0
377 378 -379 -640 0
-377 379 0
-377 -378 0
-377 -626 640 0
378 595 596 0
-378 -595 0
-378 -596 0
379 -401 402 404 586 0
-379 -586 0
-379 -404 0
-379 401 0
-379 -402 0
380 -614 615 616 -620 0
-380 620 0
-380 -616 0
-380 614 0
-380 -615 0
381 -594 -595 -596 -597 0
-381 597 0
-381 594 0
-381 596 0
-381 595 0
29 382 -637 646 0
382 637 646 -648 0
-382 -646 0
-29 -382 -637 0
-382 637 648 0
383 -384 385 -403 616 0
383 -384 385 403 -616 0
-383 -385 0
-383 403 616 0
-383 384 0
-383 -403 -616 0
50 384 -638 639 -643 0
-384 643 0
-50 -384 0
-384 638 0
-384 -639 0
385 -404 617 0
385 -587 617 0
-385 -617 0
-385 404 587 0
-264 -341 386 0
-341 386 -617 0
341 -386 0
264 -386 617 0
258 342 387 -388 0
-220 258 342 387 0
-342 -387 0
-258 -387 0
220 -387 388 0
290 388 -595 0
388 -595 599 0
290 388 -599 -600 0
-388 595 599 0
-290 -388 -599 0
-388 595 600 0
-327 352 389 -623 0
-327 335 352 389 0
327 -389 0
-352 -389 0
-335 -389 623 0
228 -251 390 391 0
-228 -390 0
251 -390 0
-390 -391 0
-246 391 -404 0
-246 -320 391 0
246 -391 0
320 -391 404 0
392 393 397 0
-229 392 -393 402 0
-392 393 -397 0
-392 -393 -402 0
229 -392 -393 0
393 394 -396 644 0
-356 393 394 644 0
-393 -644 0
-393 -394 0
356 -393 396 0
394 395 -637 0
-394 637 0
-394 -395 0
-248 395 402 0
230 395 402 -404 0
-395 -402 0
248 -395 404 0
-230 248 -395 0
-235 396 402 0
-396 -402 0
235 -396 0
397 -398 645 0
-396 397 645 0
397 637 645 0
-397 -645 0
396 -397 398 -637 0
-356 398 -402 0
-398 402 0
356 -398 0
345 399 400 0
399 400 -595 0
-220 399 400 0
-399 -400 0
220 -345 -399 595 0
204 225 -290 400 0
-204 225 400 595 0
-225 -400 0
204 290 -400 0
-204 -400 -595 0
1 2 0
-1 -2 0
768 0

